c *********************************
c * Circuit generated by BenCGen
c *
c * Magnitude_5
c *
c * Ports with 1 gate(s): 7
c * Ports with 2 gate(s): 13
c * Ports with 3 gate(s): 1
c * Ports with 4 gate(s): 1
c * Ports with 5 gate(s): 3
c * Total gates: 25
c *********************************
p cnf 35 85
1 15 0
-1 -15 0
1 -14 0
15 -14 0
-1 -15 14 0
6 16 0
-6 -16 0
7 17 0
-7 -17 0
8 18 0
-8 -18 0
9 19 0
-9 -19 0
10 20 0
-10 -20 0
1 6 26 0
-1 6 -26 0
1 -6 -26 0
-1 -6 26 0
1 -21 0
16 -21 0
-1 -16 21 0
2 7 27 0
-2 7 -27 0
2 -7 -27 0
-2 -7 27 0
2 -22 0
17 -22 0
-2 -17 22 0
3 8 28 0
-3 8 -28 0
3 -8 -28 0
-3 -8 28 0
3 -23 0
18 -23 0
-3 -18 23 0
4 9 29 0
-4 9 -29 0
4 -9 -29 0
-4 -9 29 0
4 -24 0
19 -24 0
-4 -19 24 0
5 10 30 0
-5 10 -30 0
5 -10 -30 0
-5 -10 30 0
5 -25 0
20 -25 0
-5 -20 25 0
21 -31 0
27 -31 0
28 -31 0
29 -31 0
30 -31 0
-21 -27 -28 -29 -30 31 0
22 -32 0
28 -32 0
29 -32 0
30 -32 0
-22 -28 -29 -30 32 0
23 -33 0
29 -33 0
30 -33 0
-23 -29 -30 33 0
24 -34 0
30 -34 0
-24 -30 34 0
25 -35 0
-25 35 0
-31 11 0
-32 11 0
-33 11 0
-34 11 0
-35 11 0
31 32 33 34 35 -11 0
26 -12 0
27 -12 0
28 -12 0
29 -12 0
30 -12 0
-26 -27 -28 -29 -30 12 0
-11 -13 0
-12 -13 0
11 12 13 0
